NAME: eil51_25
COMMENT: 524.61
VEHICLE: 5
TIME: 13.6268
DIMENSION: 51
CAPACITY: 160
DELIVERY_SECTION
0 0 0
1 1 1.6
2 1 1.6
3 1 1.6
4 1 1.6
5 1 0.6
6 2 16
7 2 8
8 2 1.6
9 2 1.6
10 2 1.6
11 2 1.2
12 3 16
13 4 8
14 4 1
15 5 16
16 5 1.6
17 5 1.6
18 5 1.6
19 5 0.2
20 6 8
21 6 1.6
22 6 1.6
23 6 1.6
24 6 1.6
25 6 0.6
26 7 16
27 7 1.6
28 7 1.4
29 8 16
30 8 1.6
31 8 1.6
32 8 1.6
33 8 1.6
34 8 0.6
35 9 8
36 9 1.6
37 9 1.4
38 10 1.6
39 10 1.6
40 10 1.6
41 10 0.2
42 11 16
43 11 1.6
44 11 1.4
45 12 16
46 12 8
47 12 1.6
48 12 1.6
49 12 1.6
50 12 0.2
51 13 16
52 13 1.6
53 13 1.6
54 13 1.6
55 13 1.6
56 13 0.6
57 14 16
58 14 1.6
59 14 1.6
60 14 1.6
61 14 0.2
62 15 8
63 15 1.6
64 15 0.4
65 16 8
66 16 1.6
67 16 1.6
68 16 1.6
69 16 1.6
70 16 0.6
71 17 1.6
72 17 1.4
73 18 40
74 18 1
75 19 8
76 19 1
77 20 16
78 20 8
79 20 1.6
80 20 1.6
81 20 0.8
82 21 8
83 22 8
84 23 16
85 24 8
86 24 1.6
87 24 0.4
88 25 16
89 25 8
90 25 1.6
91 25 1.6
92 25 0.8
93 26 1.6
94 26 1.6
95 26 1.6
96 26 1.6
97 26 0.6
98 27 8
99 27 1.6
100 27 1.6
101 27 1.6
102 27 1.6
103 27 0.6
104 28 8
105 28 1.6
106 28 1.6
107 28 1.6
108 28 1.2
109 29 1.6
110 29 1.6
111 29 1.6
112 29 1.2
113 30 16
114 30 1.6
115 30 1.4
116 31 8
117 31 1.6
118 31 1.4
119 32 8
120 32 1.6
121 32 1.6
122 32 0.8
123 33 16
124 33 1.6
125 33 1.6
126 33 1.6
127 33 1.6
128 33 0.6
129 34 16
130 34 8
131 34 1.6
132 34 0.4
133 35 16
134 35 1
135 36 1.6
136 36 1.6
137 36 1.6
138 36 1.2
139 37 8
140 37 1
141 38 8
142 38 1.6
143 38 1.6
144 38 1.6
145 38 1.6
146 38 0.6
147 39 8
148 39 1.6
149 39 1.6
150 39 1.6
151 39 1.2
152 40 1.6
153 40 1.6
154 40 1.6
155 40 1.6
156 40 0.6
157 41 16
158 41 8
159 41 1.6
160 41 1.4
161 42 8
162 42 1.6
163 42 1.6
164 42 1.6
165 42 0.2
166 43 8
167 43 1.6
168 43 1.4
169 44 16
170 45 8
171 45 1.6
172 45 0.4
173 46 1.6
174 46 1.6
175 46 1.6
176 46 0.2
177 47 16
178 47 8
179 47 1
180 48 16
181 48 1
182 49 16
183 49 1.6
184 49 0.4
185 50 8
186 50 1.6
187 50 0.4
PICKUP_SECTION
NODE_SECTION
30 40

37 52

49 49

52 64

20 26

40 30

21 47

17 63

31 62

52 33

51 21

42 41

31 32

 5 25

12 42

36 16

52 41

27 23

17 33

13 13

57 58

62 42

42 57

16 57

 8 52

 7 38

27 68

30 48

43 67

58 48

58 27

37 69

38 46

46 10

61 33

62 63

63 69

32 22

45 35

59 15

 5  6

10 17

21 10
 
5 64

30 15

39 10

32 39

25 32

25 55

48 28

56 37
DISTANCE_SECTION
DEPOT_SECTION
0
EOF